(set-logic QF_LRA)
(declare-fun X0 () Real )
(declare-fun Y0 () Real )
(declare-fun X1 () Real )
(declare-fun Y1 () Real )
(declare-fun X2 () Real )
(declare-fun Y2 () Real )
(declare-fun X3 () Real )
(declare-fun Y3 () Real )
(declare-fun X4 () Real )
(declare-fun Y4 () Real )
(declare-fun X5 () Real )
(declare-fun Y5 () Real )
(declare-fun X6 () Real )
(declare-fun Y6 () Real )
(declare-fun X7 () Real )
(declare-fun Y7 () Real )
(declare-fun X8 () Real )
(declare-fun Y8 () Real )
(declare-fun X9 () Real )
(declare-fun Y9 () Real )
(declare-fun X10 () Real )
(declare-fun Y10 () Real )
(declare-fun X11 () Real )
(declare-fun Y11 () Real )
(declare-fun Z () Real )
(assert ( and  
( or ( <= ( + X0 20 ) X1 )  ( <= ( + X1 24 ) X0 )  ( <= ( + Y0 52 ) Y1 )  ( <= ( + Y1 78 ) Y0 )  )
( or ( <= ( + X0 20 ) X2 )  ( <= ( + X2 39 ) X0 )  ( <= ( + Y0 52 ) Y2 )  ( <= ( + Y2 20 ) Y0 )  )
( or ( <= ( + X0 20 ) X3 )  ( <= ( + X3 14 ) X0 )  ( <= ( + Y0 52 ) Y3 )  ( <= ( + Y3 30 ) Y0 )  )
( or ( <= ( + X0 20 ) X4 )  ( <= ( + X4 4 ) X0 )  ( <= ( + Y0 52 ) Y4 )  ( <= ( + Y4 76 ) Y0 )  )
( or ( <= ( + X0 20 ) X5 )  ( <= ( + X5 16 ) X0 )  ( <= ( + Y0 52 ) Y5 )  ( <= ( + Y5 81 ) Y0 )  )
( or ( <= ( + X0 20 ) X6 )  ( <= ( + X6 69 ) X0 )  ( <= ( + Y0 52 ) Y6 )  ( <= ( + Y6 30 ) Y0 )  )
( or ( <= ( + X0 20 ) X7 )  ( <= ( + X7 45 ) X0 )  ( <= ( + Y0 52 ) Y7 )  ( <= ( + Y7 89 ) Y0 )  )
( or ( <= ( + X0 20 ) X8 )  ( <= ( + X8 17 ) X0 )  ( <= ( + Y0 52 ) Y8 )  ( <= ( + Y8 23 ) Y0 )  )
( or ( <= ( + X0 20 ) X9 )  ( <= ( + X9 65 ) X0 )  ( <= ( + Y0 52 ) Y9 )  ( <= ( + Y9 52 ) Y0 )  )
( or ( <= ( + X0 20 ) X10 )  ( <= ( + X10 47 ) X0 )  ( <= ( + Y0 52 ) Y10 )  ( <= ( + Y10 40 ) Y0 )  )
( or ( <= ( + X0 20 ) X11 )  ( <= ( + X11 24 ) X0 )  ( <= ( + Y0 52 ) Y11 )  ( <= ( + Y11 22 ) Y0 )  )
( or ( <= ( + X1 24 ) X2 )  ( <= ( + X2 39 ) X1 )  ( <= ( + Y1 78 ) Y2 )  ( <= ( + Y2 20 ) Y1 )  )
( or ( <= ( + X1 24 ) X3 )  ( <= ( + X3 14 ) X1 )  ( <= ( + Y1 78 ) Y3 )  ( <= ( + Y3 30 ) Y1 )  )
( or ( <= ( + X1 24 ) X4 )  ( <= ( + X4 4 ) X1 )  ( <= ( + Y1 78 ) Y4 )  ( <= ( + Y4 76 ) Y1 )  )
( or ( <= ( + X1 24 ) X5 )  ( <= ( + X5 16 ) X1 )  ( <= ( + Y1 78 ) Y5 )  ( <= ( + Y5 81 ) Y1 )  )
( or ( <= ( + X1 24 ) X6 )  ( <= ( + X6 69 ) X1 )  ( <= ( + Y1 78 ) Y6 )  ( <= ( + Y6 30 ) Y1 )  )
( or ( <= ( + X1 24 ) X7 )  ( <= ( + X7 45 ) X1 )  ( <= ( + Y1 78 ) Y7 )  ( <= ( + Y7 89 ) Y1 )  )
( or ( <= ( + X1 24 ) X8 )  ( <= ( + X8 17 ) X1 )  ( <= ( + Y1 78 ) Y8 )  ( <= ( + Y8 23 ) Y1 )  )
( or ( <= ( + X1 24 ) X9 )  ( <= ( + X9 65 ) X1 )  ( <= ( + Y1 78 ) Y9 )  ( <= ( + Y9 52 ) Y1 )  )
( or ( <= ( + X1 24 ) X10 )  ( <= ( + X10 47 ) X1 )  ( <= ( + Y1 78 ) Y10 )  ( <= ( + Y10 40 ) Y1 )  )
( or ( <= ( + X1 24 ) X11 )  ( <= ( + X11 24 ) X1 )  ( <= ( + Y1 78 ) Y11 )  ( <= ( + Y11 22 ) Y1 )  )
( or ( <= ( + X2 39 ) X3 )  ( <= ( + X3 14 ) X2 )  ( <= ( + Y2 20 ) Y3 )  ( <= ( + Y3 30 ) Y2 )  )
( or ( <= ( + X2 39 ) X4 )  ( <= ( + X4 4 ) X2 )  ( <= ( + Y2 20 ) Y4 )  ( <= ( + Y4 76 ) Y2 )  )
( or ( <= ( + X2 39 ) X5 )  ( <= ( + X5 16 ) X2 )  ( <= ( + Y2 20 ) Y5 )  ( <= ( + Y5 81 ) Y2 )  )
( or ( <= ( + X2 39 ) X6 )  ( <= ( + X6 69 ) X2 )  ( <= ( + Y2 20 ) Y6 )  ( <= ( + Y6 30 ) Y2 )  )
( or ( <= ( + X2 39 ) X7 )  ( <= ( + X7 45 ) X2 )  ( <= ( + Y2 20 ) Y7 )  ( <= ( + Y7 89 ) Y2 )  )
( or ( <= ( + X2 39 ) X8 )  ( <= ( + X8 17 ) X2 )  ( <= ( + Y2 20 ) Y8 )  ( <= ( + Y8 23 ) Y2 )  )
( or ( <= ( + X2 39 ) X9 )  ( <= ( + X9 65 ) X2 )  ( <= ( + Y2 20 ) Y9 )  ( <= ( + Y9 52 ) Y2 )  )
( or ( <= ( + X2 39 ) X10 )  ( <= ( + X10 47 ) X2 )  ( <= ( + Y2 20 ) Y10 )  ( <= ( + Y10 40 ) Y2 )  )
( or ( <= ( + X2 39 ) X11 )  ( <= ( + X11 24 ) X2 )  ( <= ( + Y2 20 ) Y11 )  ( <= ( + Y11 22 ) Y2 )  )
( or ( <= ( + X3 14 ) X4 )  ( <= ( + X4 4 ) X3 )  ( <= ( + Y3 30 ) Y4 )  ( <= ( + Y4 76 ) Y3 )  )
( or ( <= ( + X3 14 ) X5 )  ( <= ( + X5 16 ) X3 )  ( <= ( + Y3 30 ) Y5 )  ( <= ( + Y5 81 ) Y3 )  )
( or ( <= ( + X3 14 ) X6 )  ( <= ( + X6 69 ) X3 )  ( <= ( + Y3 30 ) Y6 )  ( <= ( + Y6 30 ) Y3 )  )
( or ( <= ( + X3 14 ) X7 )  ( <= ( + X7 45 ) X3 )  ( <= ( + Y3 30 ) Y7 )  ( <= ( + Y7 89 ) Y3 )  )
( or ( <= ( + X3 14 ) X8 )  ( <= ( + X8 17 ) X3 )  ( <= ( + Y3 30 ) Y8 )  ( <= ( + Y8 23 ) Y3 )  )
( or ( <= ( + X3 14 ) X9 )  ( <= ( + X9 65 ) X3 )  ( <= ( + Y3 30 ) Y9 )  ( <= ( + Y9 52 ) Y3 )  )
( or ( <= ( + X3 14 ) X10 )  ( <= ( + X10 47 ) X3 )  ( <= ( + Y3 30 ) Y10 )  ( <= ( + Y10 40 ) Y3 )  )
( or ( <= ( + X3 14 ) X11 )  ( <= ( + X11 24 ) X3 )  ( <= ( + Y3 30 ) Y11 )  ( <= ( + Y11 22 ) Y3 )  )
( or ( <= ( + X4 4 ) X5 )  ( <= ( + X5 16 ) X4 )  ( <= ( + Y4 76 ) Y5 )  ( <= ( + Y5 81 ) Y4 )  )
( or ( <= ( + X4 4 ) X6 )  ( <= ( + X6 69 ) X4 )  ( <= ( + Y4 76 ) Y6 )  ( <= ( + Y6 30 ) Y4 )  )
( or ( <= ( + X4 4 ) X7 )  ( <= ( + X7 45 ) X4 )  ( <= ( + Y4 76 ) Y7 )  ( <= ( + Y7 89 ) Y4 )  )
( or ( <= ( + X4 4 ) X8 )  ( <= ( + X8 17 ) X4 )  ( <= ( + Y4 76 ) Y8 )  ( <= ( + Y8 23 ) Y4 )  )
( or ( <= ( + X4 4 ) X9 )  ( <= ( + X9 65 ) X4 )  ( <= ( + Y4 76 ) Y9 )  ( <= ( + Y9 52 ) Y4 )  )
( or ( <= ( + X4 4 ) X10 )  ( <= ( + X10 47 ) X4 )  ( <= ( + Y4 76 ) Y10 )  ( <= ( + Y10 40 ) Y4 )  )
( or ( <= ( + X4 4 ) X11 )  ( <= ( + X11 24 ) X4 )  ( <= ( + Y4 76 ) Y11 )  ( <= ( + Y11 22 ) Y4 )  )
( or ( <= ( + X5 16 ) X6 )  ( <= ( + X6 69 ) X5 )  ( <= ( + Y5 81 ) Y6 )  ( <= ( + Y6 30 ) Y5 )  )
( or ( <= ( + X5 16 ) X7 )  ( <= ( + X7 45 ) X5 )  ( <= ( + Y5 81 ) Y7 )  ( <= ( + Y7 89 ) Y5 )  )
( or ( <= ( + X5 16 ) X8 )  ( <= ( + X8 17 ) X5 )  ( <= ( + Y5 81 ) Y8 )  ( <= ( + Y8 23 ) Y5 )  )
( or ( <= ( + X5 16 ) X9 )  ( <= ( + X9 65 ) X5 )  ( <= ( + Y5 81 ) Y9 )  ( <= ( + Y9 52 ) Y5 )  )
( or ( <= ( + X5 16 ) X10 )  ( <= ( + X10 47 ) X5 )  ( <= ( + Y5 81 ) Y10 )  ( <= ( + Y10 40 ) Y5 )  )
( or ( <= ( + X5 16 ) X11 )  ( <= ( + X11 24 ) X5 )  ( <= ( + Y5 81 ) Y11 )  ( <= ( + Y11 22 ) Y5 )  )
( or ( <= ( + X6 69 ) X7 )  ( <= ( + X7 45 ) X6 )  ( <= ( + Y6 30 ) Y7 )  ( <= ( + Y7 89 ) Y6 )  )
( or ( <= ( + X6 69 ) X8 )  ( <= ( + X8 17 ) X6 )  ( <= ( + Y6 30 ) Y8 )  ( <= ( + Y8 23 ) Y6 )  )
( or ( <= ( + X6 69 ) X9 )  ( <= ( + X9 65 ) X6 )  ( <= ( + Y6 30 ) Y9 )  ( <= ( + Y9 52 ) Y6 )  )
( or ( <= ( + X6 69 ) X10 )  ( <= ( + X10 47 ) X6 )  ( <= ( + Y6 30 ) Y10 )  ( <= ( + Y10 40 ) Y6 )  )
( or ( <= ( + X6 69 ) X11 )  ( <= ( + X11 24 ) X6 )  ( <= ( + Y6 30 ) Y11 )  ( <= ( + Y11 22 ) Y6 )  )
( or ( <= ( + X7 45 ) X8 )  ( <= ( + X8 17 ) X7 )  ( <= ( + Y7 89 ) Y8 )  ( <= ( + Y8 23 ) Y7 )  )
( or ( <= ( + X7 45 ) X9 )  ( <= ( + X9 65 ) X7 )  ( <= ( + Y7 89 ) Y9 )  ( <= ( + Y9 52 ) Y7 )  )
( or ( <= ( + X7 45 ) X10 )  ( <= ( + X10 47 ) X7 )  ( <= ( + Y7 89 ) Y10 )  ( <= ( + Y10 40 ) Y7 )  )
( or ( <= ( + X7 45 ) X11 )  ( <= ( + X11 24 ) X7 )  ( <= ( + Y7 89 ) Y11 )  ( <= ( + Y11 22 ) Y7 )  )
( or ( <= ( + X8 17 ) X9 )  ( <= ( + X9 65 ) X8 )  ( <= ( + Y8 23 ) Y9 )  ( <= ( + Y9 52 ) Y8 )  )
( or ( <= ( + X8 17 ) X10 )  ( <= ( + X10 47 ) X8 )  ( <= ( + Y8 23 ) Y10 )  ( <= ( + Y10 40 ) Y8 )  )
( or ( <= ( + X8 17 ) X11 )  ( <= ( + X11 24 ) X8 )  ( <= ( + Y8 23 ) Y11 )  ( <= ( + Y11 22 ) Y8 )  )
( or ( <= ( + X9 65 ) X10 )  ( <= ( + X10 47 ) X9 )  ( <= ( + Y9 52 ) Y10 )  ( <= ( + Y10 40 ) Y9 )  )
( or ( <= ( + X9 65 ) X11 )  ( <= ( + X11 24 ) X9 )  ( <= ( + Y9 52 ) Y11 )  ( <= ( + Y11 22 ) Y9 )  )
( or ( <= ( + X10 47 ) X11 )  ( <= ( + X11 24 ) X10 )  ( <= ( + Y10 40 ) Y11 )  ( <= ( + Y11 22 ) Y10 )  )
( >= X0 0)
( <= ( + X0 20) Z)
( >= Y0 0)
( <= ( + Y0 52 ) 173)
( >= X1 0)
( <= ( + X1 24) Z)
( >= Y1 0)
( <= ( + Y1 78 ) 173)
( >= X2 0)
( <= ( + X2 39) Z)
( >= Y2 0)
( <= ( + Y2 20 ) 173)
( >= X3 0)
( <= ( + X3 14) Z)
( >= Y3 0)
( <= ( + Y3 30 ) 173)
( >= X4 0)
( <= ( + X4 4) Z)
( >= Y4 0)
( <= ( + Y4 76 ) 173)
( >= X5 0)
( <= ( + X5 16) Z)
( >= Y5 0)
( <= ( + Y5 81 ) 173)
( >= X6 0)
( <= ( + X6 69) Z)
( >= Y6 0)
( <= ( + Y6 30 ) 173)
( >= X7 0)
( <= ( + X7 45) Z)
( >= Y7 0)
( <= ( + Y7 89 ) 173)
( >= X8 0)
( <= ( + X8 17) Z)
( >= Y8 0)
( <= ( + Y8 23 ) 173)
( >= X9 0)
( <= ( + X9 65) Z)
( >= Y9 0)
( <= ( + Y9 52 ) 173)
( >= X10 0)
( <= ( + X10 47) Z)
( >= Y10 0)
( <= ( + Y10 40 ) 173)
( >= X11 0)
( <= ( + X11 24) Z)
( >= Y11 0)
( <= ( + Y11 22 ) 173)
) )
(minimize Z)
(check-sat)
